N = 6;
H = 5;
T = 2;

avail = array3d(1..N, 1..H, 1..T, [2, 6, 1, 4, 9, 5, 6, 7, 9, 3, 0, 0, 4, 2, 8, 6, 4, 0, 6, 3, 10, 9, 4, 1, 4, 9, 5, 6, 2, 3, 0, 3, 7, 0, 0, 2, 2, 8, 5, 4, 10, 1, 0, 0, 5, 8, 3, 7, 7, 1, 8, 0, 4, 0, 6, 8, 8, 4, 5, 1]);

r = array2d(1..H, 1..T, [1, 1, 2, 0, 1, 1, 1, 0, 0, 1]);
